# Solution for model r5_t18_m0_0 Batch Number: 2
# Finished Task: 18 / 18
# Makespan: 434.0, Total Distance: 419.0, Total Time: 1.8841
# R O S F Batch
0 0 5 0.0 0.0 -1
1 1 14 0.0 0.0 -1
2 2 20 0.0 0.0 -1
3 3 21 0.0 0.0 -1
4 4 19 0.0 0.0 -1
5 0 10 358.0 379.0 0
6 4 -1 371.0 401.0 1
7 3 -1 206.0 234.0 1
8 2 17 87.0 118.0 0
9 1 18 107.0 146.0 0
10 0 -1 394.0 433.0 1
11 4 6 260.0 298.0 0
12 2 -1 398.0 434.0 1
13 1 22 298.0 337.0 0
14 1 9 66.0 97.0 0
15 2 12 338.0 368.0 1
16 2 15 294.0 322.0 1
17 2 16 233.0 266.0 1
18 1 13 165.0 188.0 0
19 4 11 202.0 235.0 0
20 2 8 27.0 60.0 0
21 3 7 51.0 81.0 0
22 1 -1 361.0 394.0 1
